Version identifier: 12.10.0.0 | 2019-11-26 | 843d4de
CPXPARAM_WorkMem                                 28672
Tried aggregator 2 times.
Aggregator did 30 substitutions.
Reduced MIP has 170 rows, 225 columns, and 825 nonzeros.
Reduced MIP has 225 binaries, 0 generals, 0 SOSs, and 0 indicators.
Presolve time = 0,00 sec. (0,77 ticks)
Found incumbent of value 715,000000 after 0,00 sec. (1,33 ticks)
Probing time = 0,00 sec. (0,28 ticks)
Tried aggregator 1 time.
Detecting symmetries...
MIP Presolve eliminated 40 rows and 0 columns.
MIP Presolve added 80 rows and 0 columns.
Reduced MIP has 210 rows, 225 columns, and 865 nonzeros.
Reduced MIP has 225 binaries, 0 generals, 0 SOSs, and 0 indicators.
Presolve time = 0,00 sec. (1,05 ticks)
Probing time = 0,00 sec. (0,27 ticks)
Clique table members: 540.
MIP emphasis: balance optimality and feasibility.
MIP search method: dynamic search.
Parallel mode: deterministic, using up to 16 threads.
Root relaxation solution time = 0,00 sec. (0,72 ticks)

        Nodes                                         Cuts/
   Node  Left     Objective  IInf  Best Integer    Best Bound    ItCnt     Gap

*     0+    0                          715,0000        0,0000           100,00%
*     0+    0                          335,0000        0,0000           100,00%
*     0+    0                          305,0000        0,0000           100,00%
      0     0      143,0000    90      305,0000      143,0000       85   53,11%
      0     0      143,0000    90      305,0000     Cuts: 152      145   53,11%
      0     0      143,0000    90      305,0000      Cuts: 98      169   53,11%
      0     0      143,0000    90      305,0000     Cuts: 152      222   53,11%
*     0+    0                          297,0000      143,0000            51,85%
*     0+    0                          272,0000      143,0000            47,43%
      0     2      154,3833    91      272,0000      143,0000      281   47,43%
Elapsed time = 0,07 sec. (30,38 ticks, tree = 0,02 MB, solutions = 5)
*  2392+  859                          271,0000      228,1748            15,80%
   3855   574        cutoff            271,0000      258,7145    85476    4,53%

Clique cuts applied:  58
Cover cuts applied:  254
Mixed integer rounding cuts applied:  9
Zero-half cuts applied:  2
Gomory fractional cuts applied:  2

Root node processing (before b&c):
  Real time             =    0,07 sec. (30,26 ticks)
Parallel b&c, 16 threads:
  Real time             =    0,46 sec. (261,99 ticks)
  Sync time (average)   =    0,19 sec.
  Wait time (average)   =    0,00 sec.
                          ------------
Total (root+branch&cut) =    0,53 sec. (292,25 ticks)
